c PicoSAT SAT Solver Version 965
c Copyright (c) 2006 - 2014 Armin Biere JKU Linz
c gcc -g -O2 -fdebug-prefix-map=/build/picosat-jdRevn/picosat-965=. -fstack-protector-strong -Wformat -Werror=format-security
c
c using 2 as default phase
c
c parsing infile.cnf
c parsed header 'p cnf 2744 133640'
c initialized 2744 variables
c found 133640 non trivial clauses
c
c random number generator seed 0
c 
c  seconds     variables   original    learned     agility
c         level        used      conflicts    limit          MB
c 
c 0   0.1   0.0  1627  40.7  3149     1     0     0   0.0   3.3 
c 
c  seconds     variables   original    learned     agility
c         level        used      conflicts    limit          MB
c 
s UNSATISFIABLE
c
c 0 iterations
c 0 restarts
c 0 failed literals
c 1 conflicts
c 0 decisions
c 1117 fixed variables
c 1004 learned literals
c 0.0% deleted literals
c 1116 propagations
c 1545 visits
c 40.7% variables used
c 0.1 seconds in library
c 0.0 megaprops/second
c 0.0 megavisits/second
c probing 0.0 seconds 0%
c 0 simplifications
c 0 reductions
c 0.0 MB recycled
c 3.3 MB maximally allocated
c 0.1 seconds total run time
